# Solution for model GasLib-40
# Objective value = 6.9794471183439754e+01
loadshed[innode_1] 0
loadshed[innode_2] 0
loadshed[innode_3] 0
loadshed[innode_4] 0
loadshed[innode_5] 0
loadshed[innode_6] 0
loadshed[innode_7] 0
loadshed[innode_8] 0
loadshed[source_1] -3.2091131396731143e-02
loadshed[source_2] 1.2176374375463017e-01
loadshed[source_3] 3.5181229211891163e-01
loadshed[sink_1] 1
loadshed[sink_2] 0
loadshed[sink_3] 0
loadshed[sink_4] 0
loadshed[sink_5] 0
loadshed[sink_6] 0
loadshed[sink_7] 0
loadshed[sink_8] 0
loadshed[sink_9] 0
loadshed[sink_10] 0
loadshed[sink_11] 0
loadshed[sink_12] 1
loadshed[sink_13] 0
loadshed[sink_14] 0
loadshed[sink_15] 0
loadshed[sink_16] 0
loadshed[sink_17] 0
loadshed[sink_18] 0
loadshed[sink_19] 0
loadshed[sink_20] 0
loadshed[sink_21] 1
loadshed[sink_22] 2.9629262470491979e-01
loadshed[sink_23] 0
loadshed[sink_24] 9.7139478523789280e-01
loadshed[sink_25] 0
loadshed[sink_26] 0
loadshed[sink_27] 0
loadshed[sink_28] 0
loadshed[sink_29] 0
flow[source_1,sink_3] 1.6316357365449016e+02
flow[innode_1,sink_16] 1.6354166666666970e+01
flow[innode_6,sink_13] 1.2006991875605010e+01
flow[sink_13,sink_14] -4.3471747910616578e+00
flow[sink_14,sink_10] -2.0701341457728326e+01
flow[sink_25,sink_26] 0
flow[sink_26,sink_9] 4.8141222056006136e+01
flow[sink_9,sink_18] 3.1787055389339468e+01
flow[sink_26,sink_4] -64.4953887226728
flow[sink_4,sink_20] 0
flow[sink_18,sink_6] 15.4328887226728
flow[sink_25,innode_8] -1.3045524032115381e+02
flow[sink_6,sink_7] -1.2429825644132151e+01
flow[sink_6,sink_22] 1.1508547700138291e+01
flow[sink_7,sink_24] 4.6781444975529718e-01
flow[sink_22,sink_1] 0
flow[sink_24,sink_21] 0
flow[sink_21,sink_12] 0
flow[sink_7,sink_5] -2.9251806760554128e+01
flow[sink_5,sink_17] -4.5605973427220789e+01
flow[sink_17,sink_4] 8.0849555389339471e+01
flow[sink_17,sink_8] -1.4280969548322688e+02
flow[sink_3,sink_23] 16.3541666666697
flow[sink_8,sink_20] -1.5916386214989353e+02
flow[sink_25,sink_20] 1.7551802881656027e+02
flow[sink_25,sink_15] -7.3423947037678261e+01
flow[sink_15,sink_29] -5.1501325677177356e+01
flow[sink_29,sink_28] 1.6354166666667879e+01
flow[sink_29,sink_2] 5.4630954693834255e+01
flow[sink_2,sink_15] 3.8276788027167584e+01
flow[sink_29,innode_7] -1.3884061370434614e+02
flow[innode_4,sink_19] 0
flow[sink_19,innode_3] 3.4044460158357076e+01
flow[innode_4,innode_5] 1.0247217479106233e+02
flow[sink_27,innode_5] -1.0247217479106233e+02
flow[sink_27,sink_19] 8.6118008124395658e+01
flow[sink_10,sink_11] 3.2708333333333641e+01
flow[sink_10,innode_2] -3.5719381299371555e+01
flow[sink_10,innode_3] -3.4044460158357076e+01
flow[innode_6,sink_25] -1.2006991875605010e+01
flow[sink_11,innode_1] 1.6354166666666970e+01
flow[sink_19,innode_2] 3.5719381299371555e+01
flow[source_3,innode_4] 1.0247217479106233e+02
flow[source_2,innode_7] 1.3884061370434614e+02
flow[sink_3,innode_8] 1.3045524032115381e+02
pressure[innode_1] 7.6203830963422618e+01
pressure[innode_2] 7.8243449098574388e+01
pressure[innode_3] 78.1680614966706
pressure[innode_4] 81.01325
pressure[innode_5] 80.9427642348042
pressure[innode_6] 7.5434800787850889e+01
pressure[innode_7] 81.01325
pressure[innode_8] 8.0467856504017419e+01
pressure[source_1] 81.01325
pressure[source_2] 81.01325
pressure[source_3] 81.01325
pressure[sink_1] 1.0132500000000002e+00
pressure[sink_2] 75.9159437537213
pressure[sink_3] 8.0467856504017419e+01
pressure[sink_4] 1.4021972326898117e+01
pressure[sink_5] 1.3714460369826780e+01
pressure[sink_6] 1.3782308097052043e+00
pressure[sink_7] 1.5488626875790730e+00
pressure[sink_8] 2.2500356561758284e+01
pressure[sink_9] 2.9404852940539721e+00
pressure[sink_10] 7.6355532271026163e+01
pressure[sink_11] 7.6203830963422618e+01
pressure[sink_12] 1.01325
pressure[sink_13] 7.5368608248195414e+01
pressure[sink_14] 7.5376387887781434e+01
pressure[sink_15] 75.7909784768808
pressure[sink_16] 7.5182181128604938e+01
pressure[sink_17] 1.7111775740710534e+01
pressure[sink_18] 1.7903348883488595e+00
pressure[sink_19] 7.8243449098574388e+01
pressure[sink_20] 3.3591839389072419e+01
pressure[sink_21] 1.01325
pressure[sink_22] 1.0132500000000002e+00
pressure[sink_23] 8.0303138492357633e+01
pressure[sink_24] 1.01325
pressure[sink_25] 7.5434800787850889e+01
pressure[sink_26] 5.8218616831798178e+00
pressure[sink_27] 8.0092434532257911e+01
pressure[sink_28] 7.7004525217270853e+01
pressure[sink_29] 7.7299807490888028e+01
interdiction[source_1,sink_3] 0
interdiction[innode_1,sink_16] 0
interdiction[innode_6,sink_13] 0
interdiction[sink_13,sink_14] 0
interdiction[sink_14,sink_10] 0
interdiction[sink_25,sink_26] 1
interdiction[sink_26,sink_9] 0
interdiction[sink_9,sink_18] 0
interdiction[sink_26,sink_4] 0
interdiction[sink_4,sink_20] 1
interdiction[sink_18,sink_6] 0
interdiction[sink_25,innode_8] 0
interdiction[sink_6,sink_7] 0
interdiction[sink_6,sink_22] 0
interdiction[sink_7,sink_24] 0
interdiction[sink_22,sink_1] 0
interdiction[sink_24,sink_21] 0
interdiction[sink_21,sink_12] 0
interdiction[sink_7,sink_5] 0
interdiction[sink_5,sink_17] 0
interdiction[sink_17,sink_4] 0
interdiction[sink_17,sink_8] 0
interdiction[sink_3,sink_23] 0
interdiction[sink_8,sink_20] 0
interdiction[sink_25,sink_20] 0
interdiction[sink_25,sink_15] 0
interdiction[sink_15,sink_29] 0
interdiction[sink_29,sink_28] 0
interdiction[sink_29,sink_2] 0
interdiction[sink_2,sink_15] 0
interdiction[sink_29,innode_7] 0
interdiction[innode_4,sink_19] 1
interdiction[sink_19,innode_3] 0
interdiction[innode_4,innode_5] 0
interdiction[sink_27,innode_5] 0
interdiction[sink_27,sink_19] 0
interdiction[sink_10,sink_11] 0
interdiction[sink_10,innode_2] 0
interdiction[sink_10,innode_3] 0
interdiction[innode_6,sink_25] 0
interdiction[sink_11,innode_1] 0
interdiction[sink_19,innode_2] 0
interdiction[source_3,innode_4] 0
interdiction[source_2,innode_7] 0
interdiction[sink_3,innode_8] 0
WCcheckFlow[source_1,sink_3] 39
WCcheckFlow[innode_1,sink_16] 1
WCcheckFlow[innode_6,sink_13] 13
WCcheckFlow[sink_13,sink_14] 12
WCcheckFlow[sink_14,sink_10] 11
WCcheckFlow[sink_25,sink_26] 0
WCcheckFlow[sink_26,sink_9] -2
WCcheckFlow[sink_9,sink_18] -3
WCcheckFlow[sink_26,sink_4] 1
WCcheckFlow[sink_4,sink_20] 0
WCcheckFlow[sink_18,sink_6] -4
WCcheckFlow[sink_25,innode_8] -36
WCcheckFlow[sink_6,sink_7] -7
WCcheckFlow[sink_6,sink_22] 2
WCcheckFlow[sink_7,sink_24] 3
WCcheckFlow[sink_22,sink_1] 1
WCcheckFlow[sink_24,sink_21] 2
WCcheckFlow[sink_21,sink_12] 1
WCcheckFlow[sink_7,sink_5] -11
WCcheckFlow[sink_5,sink_17] -12
WCcheckFlow[sink_17,sink_4] 0
WCcheckFlow[sink_17,sink_8] -13
WCcheckFlow[sink_3,sink_23] 1
WCcheckFlow[sink_8,sink_20] -14
WCcheckFlow[sink_25,sink_20] 15
WCcheckFlow[sink_25,sink_15] 6
WCcheckFlow[sink_15,sink_29] 5
WCcheckFlow[sink_29,sink_28] 1
WCcheckFlow[sink_29,sink_2] 1
WCcheckFlow[sink_2,sink_15] 0
WCcheckFlow[sink_29,innode_7] 2
WCcheckFlow[innode_4,sink_19] 0
WCcheckFlow[sink_19,innode_3] -5
WCcheckFlow[innode_4,innode_5] -2
WCcheckFlow[sink_27,innode_5] 3
WCcheckFlow[sink_27,sink_19] -4
WCcheckFlow[sink_10,sink_11] 3
WCcheckFlow[sink_10,innode_2] 1
WCcheckFlow[sink_10,innode_3] 6
WCcheckFlow[innode_6,sink_25] -14
WCcheckFlow[sink_11,innode_1] 2
WCcheckFlow[sink_19,innode_2] 0
WCcheckFlow[source_3,innode_4] -1
WCcheckFlow[source_2,innode_7] -1
WCcheckFlow[sink_3,innode_8] 37
